Generations:
0: ((16, 21, 28, 44, 31, 27, 2, 0, 48, 3, 30, 39, 49, 15, 5, 33, 34, 36, 14, 24, 1, 20, 18, 11, 26, 29, 7, 35, 37, 41, 40, 22, 6, 4, 42, 10, 43, 8, 12, 13, 19, 9, 25, 17, 32, 46, 23, 47, 45, 38), 1241)
1: ((33, 6, 43, 14, 45, 31, 22, 27, 32, 9, 40, 41, 13, 26, 8, 18, 16, 7, 15, 36, 44, 2, 24, 23, 30, 5, 49, 21, 4, 11, 19, 34, 25, 28, 3, 1, 17, 38, 35, 39, 46, 12, 47, 42, 10, 48, 37, 0, 29, 20), 1202)
2: ((45, 31, 22, 27, 32, 9, 46, 18, 15, 8, 40, 41, 13, 26, 16, 7, 36, 44, 2, 24, 23, 30, 5, 49, 21, 4, 11, 19, 34, 25, 28, 3, 1, 17, 38, 35, 39, 12, 47, 42, 10, 48, 37, 0, 29, 20, 33, 6, 43, 14), 1197)
3: ((30, 48, 44, 40, 16, 32, 46, 18, 35, 15, 1, 31, 43, 41, 27, 42, 6, 39, 45, 21, 47, 8, 7, 13, 0, 3, 24, 33, 17, 34, 9, 10, 23, 20, 36, 4, 19, 14, 49, 12, 38, 28, 22, 5, 26, 37, 29, 11, 25, 2), 1164)
4: ((30, 48, 44, 40, 16, 32, 46, 18, 35, 15, 1, 31, 43, 41, 27, 42, 6, 39, 45, 21, 47, 8, 7, 13, 0, 3, 24, 33, 17, 34, 9, 10, 23, 20, 36, 4, 19, 14, 49, 12, 38, 28, 22, 5, 26, 37, 29, 11, 25, 2), 1164)
5: ((30, 48, 44, 40, 16, 32, 46, 18, 35, 15, 1, 31, 43, 41, 27, 42, 6, 39, 45, 21, 47, 8, 7, 13, 0, 3, 24, 33, 17, 34, 9, 10, 23, 20, 36, 4, 19, 14, 49, 12, 38, 28, 22, 5, 26, 37, 29, 11, 25, 2), 1164)
6: ((30, 48, 44, 40, 16, 32, 46, 18, 35, 15, 1, 31, 43, 41, 27, 42, 6, 39, 45, 21, 47, 8, 7, 13, 0, 3, 24, 33, 17, 34, 9, 10, 23, 20, 36, 4, 19, 14, 49, 12, 38, 28, 22, 5, 26, 37, 29, 11, 25, 2), 1164)
7: ((30, 48, 44, 40, 16, 32, 46, 18, 35, 15, 1, 31, 43, 41, 27, 42, 6, 39, 45, 21, 47, 8, 7, 13, 0, 3, 24, 33, 17, 34, 9, 10, 23, 20, 36, 4, 19, 14, 49, 12, 38, 28, 22, 5, 26, 37, 29, 11, 25, 2), 1164)
8: ((18, 45, 28, 11, 17, 30, 6, 46, 48, 0, 41, 15, 5, 8, 49, 26, 43, 25, 4, 7, 39, 47, 1, 38, 27, 24, 33, 35, 13, 12, 29, 40, 42, 34, 20, 9, 16, 32, 23, 3, 14, 10, 37, 36, 44, 21, 2, 31, 22, 19), 1169)
9: ((18, 45, 28, 11, 17, 30, 6, 46, 48, 0, 41, 15, 5, 8, 49, 26, 43, 25, 4, 7, 39, 47, 1, 38, 27, 24, 33, 35, 13, 12, 29, 40, 42, 34, 20, 9, 16, 32, 23, 3, 14, 10, 37, 36, 44, 21, 2, 31, 22, 19), 1169)
10: ((18, 45, 28, 11, 17, 30, 6, 46, 48, 0, 41, 15, 5, 8, 49, 26, 43, 25, 4, 7, 39, 47, 1, 38, 27, 24, 33, 35, 13, 12, 29, 40, 42, 34, 20, 9, 16, 32, 23, 3, 14, 10, 37, 36, 44, 21, 2, 31, 22, 19), 1169)
11: ((18, 45, 28, 11, 17, 30, 6, 46, 48, 0, 41, 15, 5, 8, 49, 26, 43, 25, 4, 7, 39, 47, 1, 38, 27, 24, 33, 35, 13, 12, 29, 40, 42, 34, 20, 9, 16, 32, 23, 3, 14, 10, 37, 36, 44, 21, 2, 31, 22, 19), 1169)
12: ((18, 45, 28, 11, 17, 30, 6, 46, 48, 0, 41, 15, 5, 8, 49, 26, 43, 25, 4, 7, 39, 47, 1, 38, 27, 24, 33, 35, 13, 12, 29, 40, 42, 34, 20, 9, 16, 32, 23, 3, 14, 10, 37, 36, 44, 21, 2, 31, 22, 19), 1169)
13: ((19, 9, 30, 39, 25, 44, 41, 29, 22, 28, 46, 27, 42, 35, 2, 32, 4, 10, 20, 36, 45, 12, 37, 0, 26, 13, 6, 48, 14, 18, 16, 43, 5, 21, 34, 33, 1, 3, 11, 49, 40, 23, 47, 15, 7, 38, 31, 8, 24, 17), 1167)
14: ((19, 9, 30, 39, 25, 44, 41, 29, 22, 28, 46, 27, 42, 35, 2, 32, 4, 10, 20, 36, 45, 12, 37, 0, 26, 13, 6, 48, 14, 18, 16, 43, 5, 21, 34, 33, 1, 3, 11, 49, 40, 23, 47, 15, 7, 38, 31, 8, 24, 17), 1167)
15: ((35, 27, 41, 33, 15, 17, 3, 23, 44, 9, 24, 32, 13, 18, 46, 8, 42, 0, 43, 25, 2, 36, 4, 19, 14, 49, 38, 28, 22, 5, 40, 7, 26, 1, 16, 34, 48, 39, 6, 12, 45, 47, 20, 31, 37, 29, 11, 10, 30, 21), 1168)
16: ((27, 32, 9, 46, 18, 15, 8, 41, 13, 16, 36, 44, 2, 24, 23, 30, 21, 4, 11, 34, 25, 3, 1, 17, 35, 39, 19, 14, 49, 38, 28, 22, 5, 26, 40, 7, 48, 12, 47, 42, 10, 37, 0, 29, 20, 33, 6, 43, 45, 31), 1135)
17: ((27, 32, 9, 46, 18, 15, 8, 41, 13, 16, 36, 44, 2, 24, 23, 30, 21, 4, 11, 34, 25, 3, 1, 17, 35, 39, 19, 14, 49, 38, 28, 22, 5, 26, 40, 7, 48, 12, 47, 42, 10, 37, 0, 29, 20, 33, 6, 43, 45, 31), 1135)
18: ((27, 32, 9, 46, 18, 15, 8, 41, 13, 16, 36, 44, 2, 24, 23, 30, 21, 4, 11, 34, 25, 3, 1, 17, 35, 39, 19, 14, 49, 38, 28, 22, 5, 26, 40, 7, 48, 12, 47, 42, 10, 37, 0, 29, 20, 33, 6, 43, 45, 31), 1135)
19: ((27, 32, 9, 46, 18, 15, 8, 41, 13, 16, 36, 44, 2, 24, 23, 30, 21, 4, 11, 34, 25, 3, 1, 17, 35, 39, 19, 14, 49, 38, 28, 22, 5, 26, 40, 7, 48, 12, 47, 42, 10, 37, 0, 29, 20, 33, 6, 43, 45, 31), 1135)
20: ((27, 32, 9, 46, 18, 15, 8, 41, 13, 16, 36, 44, 2, 24, 23, 30, 21, 4, 11, 34, 25, 3, 1, 17, 35, 39, 19, 14, 49, 38, 28, 22, 5, 26, 40, 7, 48, 12, 47, 42, 10, 37, 0, 29, 20, 33, 6, 43, 45, 31), 1135)
21: ((27, 32, 9, 46, 18, 15, 8, 41, 13, 16, 36, 44, 2, 24, 23, 30, 21, 4, 11, 34, 25, 3, 1, 17, 35, 39, 19, 14, 49, 38, 28, 22, 5, 26, 40, 7, 48, 12, 47, 42, 10, 37, 0, 29, 20, 33, 6, 43, 45, 31), 1135)
22: ((27, 32, 9, 46, 18, 15, 8, 41, 13, 16, 36, 44, 2, 24, 23, 30, 21, 4, 11, 34, 25, 3, 1, 17, 35, 39, 19, 14, 49, 38, 28, 22, 5, 26, 40, 7, 48, 12, 47, 42, 10, 37, 0, 29, 20, 33, 6, 43, 45, 31), 1135)
23: ((27, 32, 9, 46, 18, 15, 8, 41, 13, 16, 36, 44, 2, 24, 23, 30, 21, 4, 11, 34, 25, 3, 1, 17, 35, 39, 19, 14, 49, 38, 28, 22, 5, 26, 40, 7, 48, 12, 47, 42, 10, 37, 0, 29, 20, 33, 6, 43, 45, 31), 1135)
24: ((27, 32, 9, 46, 18, 15, 8, 41, 13, 16, 36, 44, 2, 24, 23, 30, 21, 4, 11, 34, 25, 3, 1, 17, 35, 39, 19, 14, 49, 38, 28, 22, 5, 26, 40, 7, 48, 12, 47, 42, 10, 37, 0, 29, 20, 33, 6, 43, 45, 31), 1135)
25: ((27, 32, 9, 46, 18, 15, 8, 41, 13, 16, 36, 44, 2, 24, 23, 30, 21, 4, 11, 34, 25, 3, 1, 17, 35, 39, 19, 14, 49, 38, 28, 22, 5, 26, 40, 7, 48, 12, 47, 42, 10, 37, 0, 29, 20, 33, 6, 43, 45, 31), 1135)
26: ((27, 32, 9, 46, 18, 15, 8, 41, 13, 16, 36, 44, 2, 24, 23, 30, 21, 4, 11, 34, 25, 3, 1, 17, 35, 39, 19, 14, 49, 38, 28, 22, 5, 26, 40, 7, 48, 12, 47, 42, 10, 37, 0, 29, 20, 33, 6, 43, 45, 31), 1135)
27: ((27, 32, 9, 46, 18, 15, 8, 41, 13, 16, 36, 44, 2, 24, 23, 30, 21, 4, 11, 34, 25, 3, 1, 17, 35, 39, 19, 14, 49, 38, 28, 22, 5, 26, 40, 7, 48, 12, 47, 42, 10, 37, 0, 29, 20, 33, 6, 43, 45, 31), 1135)
28: ((27, 32, 9, 46, 18, 15, 8, 41, 13, 16, 36, 44, 2, 24, 23, 30, 21, 4, 11, 34, 25, 3, 1, 17, 35, 39, 19, 14, 49, 38, 28, 22, 5, 26, 40, 7, 48, 12, 47, 42, 10, 37, 0, 29, 20, 33, 6, 43, 45, 31), 1135)
29: ((27, 32, 9, 46, 18, 15, 8, 41, 13, 16, 36, 44, 2, 24, 23, 30, 21, 4, 11, 34, 25, 3, 1, 17, 35, 39, 19, 14, 49, 38, 28, 22, 5, 26, 40, 7, 48, 12, 47, 42, 10, 37, 0, 29, 20, 33, 6, 43, 45, 31), 1135)
30: ((27, 32, 9, 46, 18, 15, 8, 41, 13, 16, 36, 44, 2, 24, 23, 30, 21, 4, 11, 34, 25, 3, 1, 17, 35, 39, 19, 14, 49, 38, 28, 22, 5, 26, 40, 7, 48, 12, 47, 42, 10, 37, 0, 29, 20, 33, 6, 43, 45, 31), 1135)
31: ((27, 32, 9, 46, 18, 15, 8, 41, 13, 16, 36, 44, 2, 24, 23, 30, 21, 4, 11, 34, 25, 3, 1, 17, 35, 39, 19, 14, 49, 38, 28, 22, 5, 26, 40, 7, 48, 12, 47, 42, 10, 37, 0, 29, 20, 33, 6, 43, 45, 31), 1135)
32: ((27, 32, 9, 46, 18, 15, 8, 41, 13, 16, 36, 44, 2, 24, 23, 30, 21, 4, 11, 34, 25, 3, 1, 17, 35, 39, 19, 14, 49, 38, 28, 22, 5, 26, 40, 7, 48, 12, 47, 42, 10, 37, 0, 29, 20, 33, 6, 43, 45, 31), 1135)
33: ((27, 32, 9, 46, 18, 15, 8, 41, 13, 16, 36, 44, 2, 24, 23, 30, 21, 4, 11, 34, 25, 3, 1, 17, 35, 39, 19, 14, 49, 38, 28, 22, 5, 26, 40, 7, 48, 12, 47, 42, 10, 37, 0, 29, 20, 33, 6, 43, 45, 31), 1135)
34: ((27, 32, 9, 46, 18, 15, 8, 41, 13, 16, 36, 44, 2, 24, 23, 30, 21, 4, 11, 34, 25, 3, 1, 17, 35, 39, 19, 14, 49, 38, 28, 22, 5, 26, 40, 7, 48, 12, 47, 42, 10, 37, 0, 29, 20, 33, 6, 43, 45, 31), 1135)
35: ((27, 32, 9, 46, 18, 15, 8, 41, 13, 16, 36, 44, 2, 24, 23, 30, 21, 4, 11, 34, 25, 3, 1, 17, 35, 39, 19, 14, 49, 38, 28, 22, 5, 26, 40, 7, 48, 12, 47, 42, 10, 37, 0, 29, 20, 33, 6, 43, 45, 31), 1135)
36: ((27, 32, 9, 46, 18, 15, 8, 41, 13, 16, 36, 44, 2, 24, 23, 30, 21, 4, 11, 34, 25, 3, 1, 17, 35, 39, 19, 14, 49, 38, 28, 22, 5, 26, 40, 7, 48, 12, 47, 42, 10, 37, 0, 29, 20, 33, 6, 43, 45, 31), 1135)
37: ((27, 32, 9, 46, 18, 15, 8, 41, 13, 16, 36, 44, 2, 24, 23, 30, 21, 4, 11, 34, 25, 3, 1, 17, 35, 39, 19, 14, 49, 38, 28, 22, 5, 26, 40, 7, 48, 12, 47, 42, 10, 37, 0, 29, 20, 33, 6, 43, 45, 31), 1135)
38: ((27, 32, 9, 46, 18, 15, 8, 41, 13, 16, 36, 44, 2, 24, 23, 30, 21, 4, 11, 34, 25, 3, 1, 17, 35, 39, 19, 14, 49, 38, 28, 22, 5, 26, 40, 7, 48, 12, 47, 42, 10, 37, 0, 29, 20, 33, 6, 43, 45, 31), 1135)
39: ((27, 32, 9, 46, 18, 15, 8, 41, 13, 16, 36, 44, 2, 24, 23, 30, 21, 4, 11, 34, 25, 3, 1, 17, 35, 39, 19, 14, 49, 38, 28, 22, 5, 26, 40, 7, 48, 12, 47, 42, 10, 37, 0, 29, 20, 33, 6, 43, 45, 31), 1135)
40: ((27, 32, 9, 46, 18, 15, 8, 41, 13, 16, 36, 44, 2, 24, 23, 30, 21, 4, 11, 34, 25, 3, 1, 17, 35, 39, 19, 14, 49, 38, 28, 22, 5, 26, 40, 7, 48, 12, 47, 42, 10, 37, 0, 29, 20, 33, 6, 43, 45, 31), 1135)
41: ((27, 32, 9, 46, 18, 15, 8, 41, 13, 16, 36, 44, 2, 24, 23, 30, 21, 4, 11, 34, 25, 3, 1, 17, 35, 39, 19, 14, 49, 38, 28, 22, 5, 26, 40, 7, 48, 12, 47, 42, 10, 37, 0, 29, 20, 33, 6, 43, 45, 31), 1135)
42: ((27, 32, 9, 46, 18, 15, 8, 41, 13, 16, 36, 44, 2, 24, 23, 30, 21, 4, 11, 34, 25, 3, 1, 17, 35, 39, 19, 14, 49, 38, 28, 22, 5, 26, 40, 7, 48, 12, 47, 42, 10, 37, 0, 29, 20, 33, 6, 43, 45, 31), 1135)
43: ((27, 32, 9, 46, 18, 15, 8, 41, 13, 16, 36, 44, 2, 24, 23, 30, 21, 4, 11, 34, 25, 3, 1, 17, 35, 39, 19, 14, 49, 38, 28, 22, 5, 26, 40, 7, 48, 12, 47, 42, 10, 37, 0, 29, 20, 33, 6, 43, 45, 31), 1135)
44: ((27, 32, 9, 46, 18, 15, 8, 41, 13, 16, 36, 44, 2, 24, 23, 30, 21, 4, 11, 34, 25, 3, 1, 17, 35, 39, 19, 14, 49, 38, 28, 22, 5, 26, 40, 7, 48, 12, 47, 42, 10, 37, 0, 29, 20, 33, 6, 43, 45, 31), 1135)
45: ((27, 32, 9, 46, 18, 15, 8, 41, 13, 16, 36, 44, 2, 24, 23, 30, 21, 4, 11, 34, 25, 3, 1, 17, 35, 39, 19, 14, 49, 38, 28, 22, 5, 26, 40, 7, 48, 12, 47, 42, 10, 37, 0, 29, 20, 33, 6, 43, 45, 31), 1135)
46: ((27, 32, 9, 46, 18, 15, 8, 41, 13, 16, 36, 44, 2, 24, 23, 30, 21, 4, 11, 34, 25, 3, 1, 17, 35, 39, 19, 14, 49, 38, 28, 22, 5, 26, 40, 7, 48, 12, 47, 42, 10, 37, 0, 29, 20, 33, 6, 43, 45, 31), 1135)
47: ((27, 32, 9, 46, 18, 15, 8, 41, 13, 16, 36, 44, 2, 24, 23, 30, 21, 4, 11, 34, 25, 3, 1, 17, 35, 39, 19, 14, 49, 38, 28, 22, 5, 26, 40, 7, 48, 12, 47, 42, 10, 37, 0, 29, 20, 33, 6, 43, 45, 31), 1135)
48: ((27, 32, 9, 46, 18, 15, 8, 41, 13, 16, 36, 44, 2, 24, 23, 30, 21, 4, 11, 34, 25, 3, 1, 17, 35, 39, 19, 14, 49, 38, 28, 22, 5, 26, 40, 7, 48, 12, 47, 42, 10, 37, 0, 29, 20, 33, 6, 43, 45, 31), 1135)
49: ((27, 32, 9, 46, 18, 15, 8, 41, 13, 16, 36, 44, 2, 24, 23, 30, 21, 4, 11, 34, 25, 3, 1, 17, 35, 39, 19, 14, 49, 38, 28, 22, 5, 26, 40, 7, 48, 12, 47, 42, 10, 37, 0, 29, 20, 33, 6, 43, 45, 31), 1135)
50: ((27, 32, 9, 46, 18, 15, 8, 41, 13, 16, 36, 44, 2, 24, 23, 30, 21, 4, 11, 34, 25, 3, 1, 17, 35, 39, 19, 14, 49, 38, 28, 22, 5, 26, 40, 7, 48, 12, 47, 42, 10, 37, 0, 29, 20, 33, 6, 43, 45, 31), 1135)
51: ((27, 32, 9, 46, 18, 15, 8, 41, 13, 16, 36, 44, 2, 24, 23, 30, 21, 4, 11, 34, 25, 3, 1, 17, 35, 39, 19, 14, 49, 38, 28, 22, 5, 26, 40, 7, 48, 12, 47, 42, 10, 37, 0, 29, 20, 33, 6, 43, 45, 31), 1135)
52: ((27, 32, 9, 46, 18, 15, 8, 41, 13, 16, 36, 44, 2, 24, 23, 30, 21, 4, 11, 34, 25, 3, 1, 17, 35, 39, 19, 14, 49, 38, 28, 22, 5, 26, 40, 7, 48, 12, 47, 42, 10, 37, 0, 29, 20, 33, 6, 43, 45, 31), 1135)
53: ((27, 32, 9, 46, 18, 15, 8, 41, 13, 16, 36, 44, 2, 24, 23, 30, 21, 4, 11, 34, 25, 3, 1, 17, 35, 39, 19, 14, 49, 38, 28, 22, 5, 26, 40, 7, 48, 12, 47, 42, 10, 37, 0, 29, 20, 33, 6, 43, 45, 31), 1135)
54: ((27, 32, 9, 46, 18, 15, 8, 41, 13, 16, 36, 44, 2, 24, 23, 30, 21, 4, 11, 34, 25, 3, 1, 17, 35, 39, 19, 14, 49, 38, 28, 22, 5, 26, 40, 7, 48, 12, 47, 42, 10, 37, 0, 29, 20, 33, 6, 43, 45, 31), 1135)
55: ((27, 32, 9, 46, 18, 15, 8, 41, 13, 16, 36, 44, 2, 24, 23, 30, 21, 4, 11, 34, 25, 3, 1, 17, 35, 39, 19, 14, 49, 38, 28, 22, 5, 26, 40, 7, 48, 12, 47, 42, 10, 37, 0, 29, 20, 33, 6, 43, 45, 31), 1135)
56: ((27, 32, 9, 46, 18, 15, 8, 41, 13, 16, 36, 44, 2, 24, 23, 30, 21, 4, 11, 34, 25, 3, 1, 17, 35, 39, 19, 14, 49, 38, 28, 22, 5, 26, 40, 7, 48, 12, 47, 42, 10, 37, 0, 29, 20, 33, 6, 43, 45, 31), 1135)
57: ((27, 32, 9, 46, 18, 15, 8, 41, 13, 16, 36, 44, 2, 24, 23, 30, 21, 4, 11, 34, 25, 3, 1, 17, 35, 39, 19, 14, 49, 38, 28, 22, 5, 26, 40, 7, 48, 12, 47, 42, 10, 37, 0, 29, 20, 33, 6, 43, 45, 31), 1135)
58: ((27, 32, 9, 46, 18, 15, 8, 41, 13, 16, 36, 44, 2, 24, 23, 30, 21, 4, 11, 34, 25, 3, 1, 17, 35, 39, 19, 14, 49, 38, 28, 22, 5, 26, 40, 7, 48, 12, 47, 42, 10, 37, 0, 29, 20, 33, 6, 43, 45, 31), 1135)
59: ((27, 32, 9, 46, 18, 15, 8, 41, 13, 16, 36, 44, 2, 24, 23, 30, 21, 4, 11, 34, 25, 3, 1, 17, 35, 39, 19, 14, 49, 38, 28, 22, 5, 26, 40, 7, 48, 12, 47, 42, 10, 37, 0, 29, 20, 33, 6, 43, 45, 31), 1135)
60: ((27, 32, 9, 46, 18, 15, 8, 41, 13, 16, 36, 44, 2, 24, 23, 30, 21, 4, 11, 34, 25, 3, 1, 17, 35, 39, 19, 14, 49, 38, 28, 22, 5, 26, 40, 7, 48, 12, 47, 42, 10, 37, 0, 29, 20, 33, 6, 43, 45, 31), 1135)
61: ((27, 32, 9, 46, 18, 15, 8, 41, 13, 16, 36, 44, 2, 24, 23, 30, 21, 4, 11, 34, 25, 3, 1, 17, 35, 39, 19, 14, 49, 38, 28, 22, 5, 26, 40, 7, 48, 12, 47, 42, 10, 37, 0, 29, 20, 33, 6, 43, 45, 31), 1135)
62: ((27, 32, 9, 46, 18, 15, 8, 41, 13, 16, 36, 44, 2, 24, 23, 30, 21, 4, 11, 34, 25, 3, 1, 17, 35, 39, 19, 14, 49, 38, 28, 22, 5, 26, 40, 7, 48, 12, 47, 42, 10, 37, 0, 29, 20, 33, 6, 43, 45, 31), 1135)
63: ((27, 32, 9, 46, 18, 15, 8, 41, 13, 16, 36, 44, 2, 24, 23, 30, 21, 4, 11, 34, 25, 3, 1, 17, 35, 39, 19, 14, 49, 38, 28, 22, 5, 26, 40, 7, 48, 12, 47, 42, 10, 37, 0, 29, 20, 33, 6, 43, 45, 31), 1135)
64: ((27, 32, 9, 46, 18, 15, 8, 41, 13, 16, 36, 44, 2, 24, 23, 30, 21, 4, 11, 34, 25, 3, 1, 17, 35, 39, 19, 14, 49, 38, 28, 22, 5, 26, 40, 7, 48, 12, 47, 42, 10, 37, 0, 29, 20, 33, 6, 43, 45, 31), 1135)
65: ((27, 32, 9, 46, 18, 15, 8, 41, 13, 16, 36, 44, 2, 24, 23, 30, 21, 4, 11, 34, 25, 3, 1, 17, 35, 39, 19, 14, 49, 38, 28, 22, 5, 26, 40, 7, 48, 12, 47, 42, 10, 37, 0, 29, 20, 33, 6, 43, 45, 31), 1135)
66: ((27, 32, 9, 46, 18, 15, 8, 41, 13, 16, 36, 44, 2, 24, 23, 30, 21, 4, 11, 34, 25, 3, 1, 17, 35, 39, 19, 14, 49, 38, 28, 22, 5, 26, 40, 7, 48, 12, 47, 42, 10, 37, 0, 29, 20, 33, 6, 43, 45, 31), 1135)
67: ((27, 32, 9, 46, 18, 15, 8, 41, 13, 16, 36, 44, 2, 24, 23, 30, 21, 4, 11, 34, 25, 3, 1, 17, 35, 39, 19, 14, 49, 38, 28, 22, 5, 26, 40, 7, 48, 12, 47, 42, 10, 37, 0, 29, 20, 33, 6, 43, 45, 31), 1135)
68: ((27, 32, 9, 46, 18, 15, 8, 41, 13, 16, 36, 44, 2, 24, 23, 30, 21, 4, 11, 34, 25, 3, 1, 17, 35, 39, 19, 14, 49, 38, 28, 22, 5, 26, 40, 7, 48, 12, 47, 42, 10, 37, 0, 29, 20, 33, 6, 43, 45, 31), 1135)
69: ((27, 32, 9, 46, 18, 15, 8, 41, 13, 16, 36, 44, 2, 24, 23, 30, 21, 4, 11, 34, 25, 3, 1, 17, 35, 39, 19, 14, 49, 38, 28, 22, 5, 26, 40, 7, 48, 12, 47, 42, 10, 37, 0, 29, 20, 33, 6, 43, 45, 31), 1135)
70: ((27, 32, 9, 46, 18, 15, 8, 41, 13, 16, 36, 44, 2, 24, 23, 30, 21, 4, 11, 34, 25, 3, 1, 17, 35, 39, 19, 14, 49, 38, 28, 22, 5, 26, 40, 7, 48, 12, 47, 42, 10, 37, 0, 29, 20, 33, 6, 43, 45, 31), 1135)
71: ((27, 32, 9, 46, 18, 15, 8, 41, 13, 16, 36, 44, 2, 24, 23, 30, 21, 4, 11, 34, 25, 3, 1, 17, 35, 39, 19, 14, 49, 38, 28, 22, 5, 26, 40, 7, 48, 12, 47, 42, 10, 37, 0, 29, 20, 33, 6, 43, 45, 31), 1135)
72: ((27, 32, 9, 46, 18, 15, 8, 41, 13, 16, 36, 44, 2, 24, 23, 30, 21, 4, 11, 34, 25, 3, 1, 17, 35, 39, 19, 14, 49, 38, 28, 22, 5, 26, 40, 7, 48, 12, 47, 42, 10, 37, 0, 29, 20, 33, 6, 43, 45, 31), 1135)
73: ((27, 32, 9, 46, 18, 15, 8, 41, 13, 16, 36, 44, 2, 24, 23, 30, 21, 4, 11, 34, 25, 3, 1, 17, 35, 39, 19, 14, 49, 38, 28, 22, 5, 26, 40, 7, 48, 12, 47, 42, 10, 37, 0, 29, 20, 33, 6, 43, 45, 31), 1135)
74: ((27, 32, 9, 46, 18, 15, 8, 41, 13, 16, 36, 44, 2, 24, 23, 30, 21, 4, 11, 34, 25, 3, 1, 17, 35, 39, 19, 14, 49, 38, 28, 22, 5, 26, 40, 7, 48, 12, 47, 42, 10, 37, 0, 29, 20, 33, 6, 43, 45, 31), 1135)
75: ((27, 32, 9, 46, 18, 15, 8, 41, 13, 16, 36, 44, 2, 24, 23, 30, 21, 4, 11, 34, 25, 3, 1, 17, 35, 39, 19, 14, 49, 38, 28, 22, 5, 26, 40, 7, 48, 12, 47, 42, 10, 37, 0, 29, 20, 33, 6, 43, 45, 31), 1135)
76: ((27, 32, 9, 46, 18, 15, 8, 41, 13, 16, 36, 44, 2, 24, 23, 30, 21, 4, 11, 34, 25, 3, 1, 17, 35, 39, 19, 14, 49, 38, 28, 22, 5, 26, 40, 7, 48, 12, 47, 42, 10, 37, 0, 29, 20, 33, 6, 43, 45, 31), 1135)
77: ((27, 32, 9, 46, 18, 15, 8, 41, 13, 16, 36, 44, 2, 24, 23, 30, 21, 4, 11, 34, 25, 3, 1, 17, 35, 39, 19, 14, 49, 38, 28, 22, 5, 26, 40, 7, 48, 12, 47, 42, 10, 37, 0, 29, 20, 33, 6, 43, 45, 31), 1135)
78: ((27, 32, 9, 46, 18, 15, 8, 41, 13, 16, 36, 44, 2, 24, 23, 30, 21, 4, 11, 34, 25, 3, 1, 17, 35, 39, 19, 14, 49, 38, 28, 22, 5, 26, 40, 7, 48, 12, 47, 42, 10, 37, 0, 29, 20, 33, 6, 43, 45, 31), 1135)
79: ((27, 32, 9, 46, 18, 15, 8, 41, 13, 16, 36, 44, 2, 24, 23, 30, 21, 4, 11, 34, 25, 3, 1, 17, 35, 39, 19, 14, 49, 38, 28, 22, 5, 26, 40, 7, 48, 12, 47, 42, 10, 37, 0, 29, 20, 33, 6, 43, 45, 31), 1135)
80: ((27, 32, 9, 46, 18, 15, 8, 41, 13, 16, 36, 44, 2, 24, 23, 30, 21, 4, 11, 34, 25, 3, 1, 17, 35, 39, 19, 14, 49, 38, 28, 22, 5, 26, 40, 7, 48, 12, 47, 42, 10, 37, 0, 29, 20, 33, 6, 43, 45, 31), 1135)
81: ((27, 32, 9, 46, 18, 15, 8, 41, 13, 16, 36, 44, 2, 24, 23, 30, 21, 4, 11, 34, 25, 3, 1, 17, 35, 39, 19, 14, 49, 38, 28, 22, 5, 26, 40, 7, 48, 12, 47, 42, 10, 37, 0, 29, 20, 33, 6, 43, 45, 31), 1135)
82: ((27, 32, 9, 46, 18, 15, 8, 41, 13, 16, 36, 44, 2, 24, 23, 30, 21, 4, 11, 34, 25, 3, 1, 17, 35, 39, 19, 14, 49, 38, 28, 22, 5, 26, 40, 7, 48, 12, 47, 42, 10, 37, 0, 29, 20, 33, 6, 43, 45, 31), 1135)
83: ((27, 32, 9, 46, 18, 15, 8, 41, 13, 16, 36, 44, 2, 24, 23, 30, 21, 4, 11, 34, 25, 3, 1, 17, 35, 39, 19, 14, 49, 38, 28, 22, 5, 26, 40, 7, 48, 12, 47, 42, 10, 37, 0, 29, 20, 33, 6, 43, 45, 31), 1135)
84: ((27, 32, 9, 46, 18, 15, 8, 41, 13, 16, 36, 44, 2, 24, 23, 30, 21, 4, 11, 34, 25, 3, 1, 17, 35, 39, 19, 14, 49, 38, 28, 22, 5, 26, 40, 7, 48, 12, 47, 42, 10, 37, 0, 29, 20, 33, 6, 43, 45, 31), 1135)
85: ((27, 32, 9, 46, 18, 15, 8, 41, 13, 16, 36, 44, 2, 24, 23, 30, 21, 4, 11, 34, 25, 3, 1, 17, 35, 39, 19, 14, 49, 38, 28, 22, 5, 26, 40, 7, 48, 12, 47, 42, 10, 37, 0, 29, 20, 33, 6, 43, 45, 31), 1135)
86: ((48, 41, 18, 32, 15, 17, 13, 44, 10, 8, 20, 25, 2, 36, 4, 19, 49, 22, 5, 40, 7, 39, 21, 35, 31, 16, 11, 27, 37, 23, 30, 34, 1, 47, 26, 14, 24, 42, 28, 3, 0, 9, 38, 46, 6, 12, 43, 29, 33, 45), 1125)
87: ((48, 41, 18, 32, 15, 17, 13, 44, 10, 8, 20, 25, 2, 36, 4, 19, 49, 22, 5, 40, 7, 39, 21, 35, 31, 16, 11, 27, 37, 23, 30, 34, 1, 47, 26, 14, 24, 42, 28, 3, 0, 9, 38, 46, 6, 12, 43, 29, 33, 45), 1125)
88: ((48, 41, 18, 32, 15, 17, 13, 44, 10, 8, 20, 25, 2, 36, 4, 19, 49, 22, 5, 40, 7, 39, 21, 35, 31, 16, 11, 27, 37, 23, 30, 34, 1, 47, 26, 14, 24, 42, 28, 3, 0, 9, 38, 46, 6, 12, 43, 29, 33, 45), 1125)
89: ((48, 41, 18, 32, 15, 17, 13, 44, 10, 8, 20, 25, 2, 36, 4, 19, 49, 22, 5, 40, 7, 39, 21, 35, 31, 16, 11, 27, 37, 23, 30, 34, 1, 47, 26, 14, 24, 42, 28, 3, 0, 9, 38, 46, 6, 12, 43, 29, 33, 45), 1125)
90: ((48, 41, 18, 32, 15, 17, 13, 44, 10, 8, 20, 25, 2, 36, 4, 19, 49, 22, 5, 40, 7, 39, 21, 35, 31, 16, 11, 27, 37, 23, 30, 34, 1, 47, 26, 14, 24, 42, 28, 3, 0, 9, 38, 46, 6, 12, 43, 29, 33, 45), 1125)
91: ((48, 41, 18, 32, 15, 17, 13, 44, 10, 8, 20, 25, 2, 36, 4, 19, 49, 22, 5, 40, 7, 39, 21, 35, 31, 16, 11, 27, 37, 23, 30, 34, 1, 47, 26, 14, 24, 42, 28, 3, 0, 9, 38, 46, 6, 12, 43, 29, 33, 45), 1125)
92: ((48, 41, 18, 32, 15, 17, 13, 44, 10, 8, 20, 25, 2, 36, 4, 19, 49, 22, 5, 40, 7, 39, 21, 35, 31, 16, 11, 27, 37, 23, 30, 34, 1, 47, 26, 14, 24, 42, 28, 3, 0, 9, 38, 46, 6, 12, 43, 29, 33, 45), 1125)
93: ((48, 41, 18, 32, 15, 17, 13, 44, 10, 8, 20, 25, 2, 36, 4, 19, 49, 22, 5, 40, 7, 39, 21, 35, 31, 16, 11, 27, 37, 23, 30, 34, 1, 47, 26, 14, 24, 42, 28, 3, 0, 9, 38, 46, 6, 12, 43, 29, 33, 45), 1125)
94: ((48, 41, 18, 32, 15, 17, 13, 44, 10, 8, 20, 25, 2, 36, 4, 19, 49, 22, 5, 40, 7, 39, 21, 35, 31, 16, 11, 27, 37, 23, 30, 34, 1, 47, 26, 14, 24, 42, 28, 3, 0, 9, 38, 46, 6, 12, 43, 29, 33, 45), 1125)
95: ((48, 41, 18, 32, 15, 17, 13, 44, 10, 8, 20, 25, 2, 36, 4, 19, 49, 22, 5, 40, 7, 39, 21, 35, 31, 16, 11, 27, 37, 23, 30, 34, 1, 47, 26, 14, 24, 42, 28, 3, 0, 9, 38, 46, 6, 12, 43, 29, 33, 45), 1125)
Best: ((48, 41, 18, 32, 15, 17, 13, 44, 10, 8, 20, 25, 2, 36, 4, 19, 49, 22, 5, 40, 7, 39, 21, 35, 31, 16, 11, 27, 37, 23, 30, 34, 1, 47, 26, 14, 24, 42, 28, 3, 0, 9, 38, 46, 6, 12, 43, 29, 33, 45), 1125)
Runtime: 233.4509348 s